language Essence 1.3

letting blksize_delta be
        function(1 --> 8, 2 --> 8, 3 --> 8, 4 --> 8, 5 --> 8, 6 --> 8, 7 --> 9, 8 --> 8, 9 --> 8, 10 --> 8, 11 --> 8,
                 12 --> 8, 13 --> 8, 14 --> 8, 15 --> 8, 16 --> 8, 17 --> 8, 18 --> 8, 19 --> 9, 20 --> 9, 21 --> 8,
                 22 --> 9, 23 --> 8, 24 --> 8, 25 --> 9, 26 --> 8, 27 --> 8)
letting maxcars be
        function(1 --> 10, 2 --> 10, 3 --> 10, 4 --> 10, 5 --> 10, 6 --> 10, 7 --> 10, 8 --> 10, 9 --> 10, 10 --> 10,
                 11 --> 10, 12 --> 10, 13 --> 10, 14 --> 10, 15 --> 10, 16 --> 10, 17 --> 10, 18 --> 10, 19 --> 10,
                 20 --> 10, 21 --> 10, 22 --> 10, 23 --> 10, 24 --> 10, 25 --> 10, 26 --> 10, 27 --> 10)
letting n_cars be 208
letting n_classes be 32
letting n_options be 27
letting quantity be
        function(1 --> 6, 2 --> 6, 3 --> 6, 4 --> 6, 5 --> 6, 6 --> 12, 7 --> 6, 8 --> 6, 9 --> 6, 10 --> 6, 11 --> 6,
                 12 --> 9, 13 --> 7, 14 --> 6, 15 --> 6, 16 --> 6, 17 --> 11, 18 --> 6, 19 --> 6, 20 --> 7, 21 --> 6,
                 22 --> 6, 23 --> 6, 24 --> 6, 25 --> 6, 26 --> 6, 27 --> 6, 28 --> 6, 29 --> 6, 30 --> 6, 31 --> 6,
                 32 --> 6)
letting usage be
        relation((1, 12), (1, 13), (1, 21), (1, 26), (2, 1), (2, 6), (2, 8), (3, 18), (3, 19), (3, 24), (4, 10),
                 (4, 17), (4, 20), (4, 21), (4, 26), (5, 4), (5, 8), (5, 26), (6, 14), (6, 16), (6, 20), (6, 22),
                 (7, 10), (7, 20), (7, 27), (8, 27), (9, 10), (9, 18), (9, 19), (10, 4), (10, 5), (10, 6), (10, 16),
                 (10, 22), (10, 27), (11, 27), (12, 1), (13, 4), (13, 5), (13, 6), (13, 11), (14, 4), (14, 7), (14, 11),
                 (14, 14), (15, 2), (15, 21), (16, 1), (16, 3), (16, 10), (16, 17), (16, 27), (17, 1), (17, 6), (17, 8),
                 (17, 14), (17, 16), (18, 12), (18, 16), (18, 17), (18, 19), (19, 7), (19, 18), (19, 21), (20, 5),
                 (20, 11), (20, 17), (20, 18), (20, 20), (21, 2), (21, 7), (21, 9), (21, 19), (21, 27), (22, 1),
                 (22, 10), (22, 12), (23, 8), (23, 14), (23, 22), (23, 23), (24, 27), (25, 22), (25, 26), (26, 9),
                 (26, 12), (26, 17), (26, 27), (27, 1), (27, 8), (28, 17), (28, 25), (29, 20), (29, 22), (29, 27),
                 (30, 5), (30, 8), (30, 9), (30, 12), (30, 19), (30, 23), (30, 24), (31, 8), (31, 15), (31, 19),
                 (31, 25), (32, 1), (32, 16), (32, 20))
$ Visualisation for usage
$  1 12
$  1 13
$  1 21
$  1 26
$  2  1
$  2  6
$  2  8
$  3 18
$  3 19
$  3 24
$  4 10
$  4 17
$  4 20
$  4 21
$  4 26
$  5  4
$  5  8
$  5 26
$  6 14
$  6 16
$  6 20
$  6 22
$  7 10
$  7 20
$  7 27
$  8 27
$  9 10
$  9 18
$  9 19
$ 10  4
$ 10  5
$ 10  6
$ 10 16
$ 10 22
$ 10 27
$ 11 27
$ 12  1
$ 13  4
$ 13  5
$ 13  6
$ 13 11
$ 14  4
$ 14  7
$ 14 11
$ 14 14
$ 15  2
$ 15 21
$ 16  1
$ 16  3
$ 16 10
$ 16 17
$ 16 27
$ 17  1
$ 17  6
$ 17  8
$ 17 14
$ 17 16
$ 18 12
$ 18 16
$ 18 17
$ 18 19
$ 19  7
$ 19 18
$ 19 21
$ 20  5
$ 20 11
$ 20 17
$ 20 18
$ 20 20
$ 21  2
$ 21  7
$ 21  9
$ 21 19
$ 21 27
$ 22  1
$ 22 10
$ 22 12
$ 23  8
$ 23 14
$ 23 22
$ 23 23
$ 24 27
$ 25 22
$ 25 26
$ 26  9
$ 26 12
$ 26 17
$ 26 27
$ 27  1
$ 27  8
$ 28 17
$ 28 25
$ 29 20
$ 29 22
$ 29 27
$ 30  5
$ 30  8
$ 30  9
$ 30 12
$ 30 19
$ 30 23
$ 30 24
$ 31  8
$ 31 15
$ 31 19
$ 31 25
$ 32  1
$ 32 16
$ 32 20

